Version identifier: 22.1.0.0 | 2022-03-09 | 1a383f8ce
CPXPARAM_Threads                                 1
CPXPARAM_MIP_Strategy_VariableSelect             3
CPXPARAM_TimeLimit                               600
Tried aggregator 1 time.
MIP Presolve eliminated 16 rows and 0 columns.
MIP Presolve modified 5 coefficients.
Reduced MIP has 1809 rows, 7501 columns, and 106062 nonzeros.
Reduced MIP has 7500 binaries, 0 generals, 0 SOSs, and 0 indicators.
Presolve time = 0.04 sec. (33.49 ticks)
Found incumbent of value 19.000000 after 0.12 sec. (86.66 ticks)
Probing time = 0.01 sec. (4.16 ticks)
Tried aggregator 1 time.
Detecting symmetries...
Reduced MIP has 1809 rows, 7501 columns, and 106062 nonzeros.
Reduced MIP has 7500 binaries, 0 generals, 0 SOSs, and 0 indicators.
Presolve time = 0.06 sec. (46.21 ticks)
Probing time = 0.01 sec. (4.16 ticks)
Clique table members: 300.
MIP emphasis: balance optimality and feasibility.
MIP search method: dynamic search.
Parallel mode: none, using 1 thread.
Root relaxation solution time = 0.16 sec. (143.51 ticks)

        Nodes                                         Cuts/
   Node  Left     Objective  IInf  Best Integer    Best Bound    ItCnt     Gap

*     0+    0                           19.0000        0.0000           100.00%
      0     0        0.0000   359       19.0000        0.0000     1199  100.00%
*     0+    0                            0.5000        0.0000           100.00%
*     0+    0                            0.0000        0.0000             0.00%
      0     0        cutoff              0.0000        0.0000     1199    0.00%
Elapsed time = 1.00 sec. (992.02 ticks, tree = 0.01 MB, solutions = 3)

Root node processing (before b&c):
  Real time             =    1.00 sec. (992.35 ticks)
Sequential b&c:
  Real time             =    0.00 sec. (0.00 ticks)
                          ------------
Total (root+branch&cut) =    1.00 sec. (992.35 ticks)
Primal:	0
Dual:	0
Status:	Optimal
Time:	1.01
Sequence:
	9
	3
	2
	13
	16
	3
	7
	17
	9
	14
	3
	8
	24
	3
	12
	10
	17
	17
	19
	1
	17
	17
	21
	17
	8
	17
	7
	17
	13
	24
	24
	17
	21
	17
	17
	18
	7
	17
	2
	21
	16
	14
	17
	10
	23
	6
	5
	0
	4
	12
	5
	11
	16
	21
	15
	9
	1
	20
	4
	0
	22
	3
	10
	24
	8
	15
	5
	22
	13
	23
	15
	24
	2
	21
	4
	19
	11
	0
	21
	9
	12
	22
	8
	6
	20
	22
	4
	21
	5
	2
	7
	23
	15
	16
	14
	16
	1
	13
	18
	15
	1
	20
	2
	18
	0
	19
	14
	20
	17
	16
	21
	9
	24
	0
	19
	0
	11
	6
	23
	18
	2
	15
	21
	7
	19
	8
	12
	9
	3
	8
	12
	9
	14
	11
	23
	12
	19
	5
	19
	2
	18
	14
	1
	15
	9
	16
	2
	11
	7
	22
	9
	6
	20
	9
	23
	14
	16
	4
	18
	1
	9
	14
	11
	0
	20
	2
	10
	20
	3
	1
	23
	11
	7
	1
	11
	8
	3
	24
	16
	6
	23
	15
	0
	23
	9
	18
	21
	8
	12
	1
	14
	5
	15
	24
	23
	14
	15
	11
	16
	3
	19
	1
	24
	8
	0
	5
	19
	2
	20
	10
	11
	21
	12
	4
	1
	10
	2
	5
	4
	11
	22
	0
	4
	0
	20
	9
	0
	1
	8
	0
	4
	21
	15
	23
	6
	1
	6
	4
	24
	11
	1
	7
	6
	11
	5
	14
	12
	17
	16
	12
	19
	10
	6
	0
	16
	6
	20
	10
	11
	16
	12
	9
	4
	0
	15
	20
	21
	19
	2
	18
	21
	3
	8
	24
	6
	18
	19
	23
	6
	1
	7
	11
	5
	11
	20
	24
	6
	12
	10
	6
	23
	1
	13
	11
	16
	24
	14
	4
	8
	1
